(set-logic QF_S)
(declare-fun var0 () String)
(assert (str.in.re var0 (re.++ (re.union (re.+ (str.to.re "000")) (re.+ (str.to.re "1"))) (re.++ (re.union (re.* (str.to.re "2")) (re.* (str.to.re "333"))) (re.++ (re.union (re.* (str.to.re "444")) (re.* (str.to.re "5"))) (re.++ (re.union (re.* (str.to.re "666")) (re.* (str.to.re "777"))) (re.++ (re.+ (re.+ (str.to.re "88"))) (re.++ (re.+ (re.* (str.to.re "999"))) (re.++ (re.* (re.* (str.to.re "aaa"))) (re.++ (re.+ (re.+ (str.to.re "b"))) (re.++ (re.+ (re.union (str.to.re "ccc") (str.to.re "d"))) (re.++ (re.union (re.union (str.to.re "ee") (str.to.re "fff")) (re.union (str.to.re "ggg") (str.to.re "h"))) (re.++ (re.+ (re.union (str.to.re "iii") (str.to.re "j"))) (re.++ (re.* (re.union (str.to.re "kk") (str.to.re "ll"))) (re.++ (re.* (re.* (str.to.re "mmm"))) (re.++ (re.+ (re.union (str.to.re "nnn") (str.to.re "o"))) (re.++ (re.+ (re.+ (str.to.re "pp"))) (re.++ (re.union (re.union (str.to.re "qqq") (str.to.re "rrr")) (re.union (str.to.re "sss") (str.to.re "t"))) (re.++ (re.+ (re.union (str.to.re "uuu") (str.to.re "vv"))) (re.++ (re.* (re.* (str.to.re "w"))) (re.++ (re.union (re.* (str.to.re "xx")) (re.* (str.to.re "yyy"))) (re.++ (re.union (re.+ (str.to.re "zzz")) (re.+ (str.to.re "AA"))) (re.++ (re.* (re.union (str.to.re "BBB") (str.to.re "C"))) (re.++ (re.union (re.union (str.to.re "D") (str.to.re "E")) (re.union (str.to.re "F") (str.to.re "GGG"))) (re.++ (re.union (re.+ (str.to.re "HHH")) (re.+ (str.to.re "III"))) (re.++ (re.union (re.union (str.to.re "J") (str.to.re "KKK")) (re.union (str.to.re "LLL") (str.to.re "MMM"))) (re.++ (re.union (re.+ (str.to.re "NNN")) (re.+ (str.to.re "OO"))) (re.++ (re.+ (re.* (str.to.re "P"))) (re.++ (re.union (re.* (str.to.re "Q")) (re.* (str.to.re "R"))) (re.++ (re.union (re.union (str.to.re "SSS") (str.to.re "TTT")) (re.union (str.to.re "UU") (str.to.re "VVV"))) (re.++ (re.* (re.union (str.to.re "WW") (str.to.re "XXX"))) (re.++ (re.union (re.union (str.to.re "YYY") (str.to.re "ZZ")) (re.union (str.to.re "!!!") (str.to.re """"""))) (re.++ (re.* (re.+ (str.to.re "#"))) (re.++ (re.* (re.* (str.to.re "$"))) (re.++ (re.* (re.+ (str.to.re "%%%"))) (re.++ (re.union (re.union (str.to.re "&&&") (str.to.re "'''")) (re.union (str.to.re "(") (str.to.re ")))"))) (re.++ (re.* (re.union (str.to.re "***") (str.to.re "+"))) (re.++ (re.+ (re.* (str.to.re ","))) (re.++ (re.* (re.* (str.to.re "---"))) (re.++ (re.+ (re.+ (str.to.re "."))) (re.++ (re.+ (re.* (str.to.re "//"))) (re.++ (re.+ (re.* (str.to.re "::"))) (re.++ (re.* (re.union (str.to.re ";") (str.to.re "<"))) (re.++ (re.* (re.union (str.to.re "===") (str.to.re ">>"))) (re.++ (re.+ (re.union (str.to.re "???") (str.to.re "@"))) (re.++ (re.+ (re.+ (str.to.re "["))) (re.++ (re.+ (re.union (str.to.re "\\") (str.to.re "]]]"))) (re.++ (re.union (re.union (str.to.re "^^^") (str.to.re "__")) (re.union (str.to.re "```") (str.to.re "{{"))) (re.++ (re.union (re.* (str.to.re "|||")) (re.* (str.to.re "}}"))) (re.++ (re.+ (re.+ (str.to.re "~~~"))) (re.++ (re.* (re.union (str.to.re "0") (str.to.re "11"))) (re.++ (re.union (re.+ (str.to.re "222")) (re.+ (str.to.re "333"))) (re.++ (re.+ (re.+ (str.to.re "4"))) (re.++ (re.union (re.+ (str.to.re "55")) (re.+ (str.to.re "666"))) (re.++ (re.+ (re.union (str.to.re "777") (str.to.re "888"))) (re.++ (re.* (re.+ (str.to.re "999"))) (re.++ (re.* (re.union (str.to.re "a") (str.to.re "bb"))) (re.++ (re.union (re.* (str.to.re "c")) (re.* (str.to.re "ddd"))) (re.++ (re.* (re.union (str.to.re "eee") (str.to.re "fff"))) (re.++ (re.* (re.* (str.to.re "g"))) (re.++ (re.* (re.+ (str.to.re "hh"))) (re.++ (re.* (re.* (str.to.re "ii"))) (re.++ (re.* (re.* (str.to.re "jjj"))) (re.++ (re.* (re.+ (str.to.re "kk"))) (re.++ (re.* (re.union (str.to.re "lll") (str.to.re "mm"))) (re.++ (re.+ (re.+ (str.to.re "nn"))) (re.++ (re.+ (re.union (str.to.re "ooo") (str.to.re "ppp"))) (re.++ (re.union (re.+ (str.to.re "qq")) (re.+ (str.to.re "rrr"))) (re.++ (re.+ (re.* (str.to.re "s"))) (re.++ (re.union (re.* (str.to.re "ttt")) (re.* (str.to.re "uuu"))) (re.++ (re.* (re.+ (str.to.re "vv"))) (re.++ (re.* (re.* (str.to.re "www"))) (re.++ (re.+ (re.* (str.to.re "xx"))) (re.++ (re.union (re.* (str.to.re "yyy")) (re.* (str.to.re "zzz"))) (re.++ (re.+ (re.+ (str.to.re "A"))) (re.++ (re.+ (re.* (str.to.re "B"))) (re.++ (re.union (re.+ (str.to.re "CC")) (re.+ (str.to.re "D"))) (re.++ (re.union (re.+ (str.to.re "E")) (re.+ (str.to.re "FFF"))) (re.++ (re.union (re.union (str.to.re "GGG") (str.to.re "HHH")) (re.union (str.to.re "I") (str.to.re "J"))) (re.++ (re.* (re.* (str.to.re "KKK"))) (re.++ (re.union (re.* (str.to.re "L")) (re.* (str.to.re "M"))) (re.++ (re.* (re.* (str.to.re "NN"))) (re.++ (re.+ (re.+ (str.to.re "O"))) (re.++ (re.+ (re.* (str.to.re "PP"))) (re.++ (re.* (re.union (str.to.re "QQ") (str.to.re "RRR"))) (re.++ (re.union (re.union (str.to.re "SS") (str.to.re "TTT")) (re.union (str.to.re "UU") (str.to.re "VVV"))) (re.++ (re.+ (re.+ (str.to.re "WWW"))) (re.++ (re.union (re.union (str.to.re "XX") (str.to.re "YY")) (re.union (str.to.re "ZZ") (str.to.re "!!!"))) (re.++ (re.union (re.union (str.to.re """""""") (str.to.re "#")) (re.union (str.to.re "$") (str.to.re "%"))) (re.++ (re.* (re.+ (str.to.re "&&"))) (re.++ (re.union (re.* (str.to.re "''")) (re.* (str.to.re "(("))) (re.++ (re.* (re.+ (str.to.re ")))"))) (re.++ (re.* (re.union (str.to.re "***") (str.to.re "++"))) (re.++ (re.* (re.* (str.to.re ",,"))) (re.++ (re.union (re.+ (str.to.re "-")) (re.+ (str.to.re "..."))) (re.++ (re.+ (re.union (str.to.re "/") (str.to.re "::"))) (re.++ (re.union (re.union (str.to.re ";") (str.to.re "<<")) (re.union (str.to.re "==") (str.to.re ">>>"))) (re.++ (re.+ (re.union (str.to.re "???") (str.to.re "@"))) (re.++ (re.union (re.+ (str.to.re "[[")) (re.+ (str.to.re "\\"))) (re.++ (re.+ (re.union (str.to.re "]]") (str.to.re "^^^"))) (re.++ (re.* (re.* (str.to.re "_"))) (re.++ (re.union (re.+ (str.to.re "```")) (re.+ (str.to.re "{{{"))) (re.++ (re.* (re.* (str.to.re "||"))) (re.++ (re.+ (re.union (str.to.re "}") (str.to.re "~"))) (re.++ (re.union (re.union (str.to.re "00") (str.to.re "111")) (re.union (str.to.re "22") (str.to.re "33"))) (re.++ (re.union (re.+ (str.to.re "4")) (re.+ (str.to.re "555"))) (re.++ (re.+ (re.+ (str.to.re "6"))) (re.++ (re.* (re.+ (str.to.re "7"))) (re.++ (re.union (re.+ (str.to.re "8")) (re.+ (str.to.re "999"))) (re.++ (re.+ (re.union (str.to.re "aaa") (str.to.re "b"))) (re.++ (re.union (re.* (str.to.re "cc")) (re.* (str.to.re "d"))) (re.++ (re.union (re.* (str.to.re "e")) (re.* (str.to.re "f"))) (re.++ (re.union (re.* (str.to.re "g")) (re.* (str.to.re "hh"))) (re.++ (re.union (re.* (str.to.re "i")) (re.* (str.to.re "jj"))) (re.++ (re.union (re.union (str.to.re "kk") (str.to.re "ll")) (re.union (str.to.re "mmm") (str.to.re "nn"))) (re.++ (re.+ (re.union (str.to.re "ooo") (str.to.re "ppp"))) (re.++ (re.* (re.+ (str.to.re "qqq"))) (re.++ (re.+ (re.union (str.to.re "rr") (str.to.re "sss"))) (re.++ (re.* (re.* (str.to.re "ttt"))) (re.++ (re.* (re.+ (str.to.re "uu"))) (re.++ (re.+ (re.+ (str.to.re "v"))) (re.union (re.union (str.to.re "www") (str.to.re "x")) (re.union (str.to.re "y") (str.to.re "zzz"))))))))))))))))))))))))))))))))))))))))))))))))))))))))))))))))))))))))))))))))))))))))))))))))))))))))))))))))))))))))))))
(check-sat)